Version identifier: 20.1.0.0 | 2020-11-10 | 9bedb6d68
CPXPARAM_Threads                                 1
CPXPARAM_TimeLimit                               7200
CPXPARAM_MIP_Tolerances_MIPGap                   0
Generic callback                                 0x60
1 of 1 MIP starts provided solutions.
MIP start 'm1' defined initial solution with objective 3790.7944.
Tried aggregator 1 time.
Reduced MIP has 501001 rows, 500501 columns, and 1500500 nonzeros.
Reduced MIP has 500 binaries, 0 generals, 0 SOSs, and 0 indicators.
Presolve time = 0.45 sec. (400.65 ticks)
Probing time = 0.07 sec. (62.52 ticks)
Tried aggregator 1 time.
Reduced MIP has 501001 rows, 500501 columns, and 1500500 nonzeros.
Reduced MIP has 500 binaries, 0 generals, 0 SOSs, and 0 indicators.
Presolve time = 0.46 sec. (392.53 ticks)
Probing time = 0.06 sec. (62.52 ticks)
MIP emphasis: balance optimality and feasibility.
MIP search method: dynamic search.
Parallel mode: none, using 1 thread.
Root relaxation solution time = 0.17 sec. (193.05 ticks)

        Nodes                                         Cuts/
   Node  Left     Objective  IInf  Best Integer    Best Bound    ItCnt     Gap

*     0+    0                         3790.7944     5432.0000            43.29%
      0     0     3969.2456    62     3790.7944     5432.0000        0   43.29%
      0     2     3797.3770    62     3790.7944     3797.3769        0    0.17%
Elapsed time = 73.93 sec. (55276.52 ticks, tree = 0.01 MB, solutions = 1)
      1     3     3794.3219    72     3790.7944     3797.3769     5942    0.17%
      2     4     3794.2864    67     3790.7944     3794.3215     9532    0.09%
      3     5     3794.1606    63     3790.7944     3794.3215     9739    0.09%
      4     6     3794.0809    62     3790.7944     3794.3215     9952    0.09%
      5     7     3794.0428    55     3790.7944     3794.3215    11794    0.09%
      6     8     3793.8734    51     3790.7944     3794.3215    13126    0.09%
      7     9     3793.7940    58     3790.7944     3794.3215    14855    0.09%
      8    10     3793.7756    43     3790.7944     3794.3215    15175    0.09%
      9    11     3793.7487    45     3790.7944     3794.3215    15785    0.09%
     10    12     3793.6951    35     3790.7944     3794.3215    17130    0.09%
Elapsed time = 356.41 sec. (202233.26 ticks, tree = 1.80 MB, solutions = 1)
     11    13     3793.5641    37     3790.7944     3794.3215    17807    0.09%
     12    14     3793.2577    38     3790.7944     3794.3215    18421    0.09%
     13    15     3793.5400    52     3790.7944     3794.3215    18708    0.09%
     14    16     3793.4202    51     3790.7944     3794.3215    19282    0.09%
     15    17     3793.3873    35     3790.7944     3794.3215    19369    0.09%
     16    18     3793.3446    37     3790.7944     3794.3215    19458    0.09%
     18    20     3793.1320    19     3790.7944     3794.3215    19629    0.09%
     19    21     3793.0366     8     3790.7944     3794.3215    19914    0.09%
*    20+   20                         3792.9185     3794.3215             0.04%
     20    22     3793.0089     8     3792.9185     3794.3215    20127    0.04%
     21    21        cutoff           3792.9185     3794.3215    20507    0.04%
Elapsed time = 507.99 sec. (246025.22 ticks, tree = 11.06 MB, solutions = 2)
     23    23     3792.9764     8     3792.9185     3794.3215    20829    0.04%
     25    21        cutoff           3792.9185     3794.3215    20923    0.04%
     26    22     3792.9457     4     3792.9185     3794.3215    21065    0.04%
     27    23     3792.9327     2     3792.9185     3794.3215    21142    0.04%
     29    21        cutoff           3792.9185     3794.3215    21229    0.04%
*    30+    9                         3793.6017     3794.3215             0.02%
     30    11     3794.2063    67     3793.6017     3794.3211    21739    0.02%
     31    12     3794.1463    63     3793.6017     3794.3211    21997    0.02%
     32    13     3794.0684    62     3793.6017     3794.3211    22344    0.02%
     33    14     3793.7579    59     3793.6017     3794.3211    22883    0.02%
     34    13        cutoff           3793.6017     3794.3211    23299    0.02%
Elapsed time = 634.93 sec. (292205.42 ticks, tree = 9.80 MB, solutions = 3)
     35    14     3793.7278    58     3793.6017     3794.3211    23467    0.02%
     36    15     3793.7051    56     3793.6017     3794.3211    23597    0.02%
     37    15     3793.6021    56     3793.6017     3794.3211    23912    0.02%
     38    16     3793.6314    44     3793.6017     3794.3211    24262    0.02%
     39    17     3793.6075    41     3793.6017     3794.3211    24369    0.02%
     42    16     3794.2816    67     3793.6017     3794.2858    24588    0.02%
     43    17     3794.2334    62     3793.6017     3794.2858    24729    0.02%
     44    18     3794.2042    59     3793.6017     3794.2858    24821    0.02%
     45    19     3794.1416    58     3793.6017     3794.2858    24977    0.02%
     46    20     3793.9981    49     3793.6017     3794.2858    25167    0.02%
Elapsed time = 782.08 sec. (320999.93 ticks, tree = 14.70 MB, solutions = 3)
     47    21     3793.9762    49     3793.6017     3794.2858    25308    0.02%
     48    22     3793.8268    31     3793.6017     3794.2858    25507    0.02%
     49    23     3793.7623    32     3793.6017     3794.2858    25867    0.02%
     50    24     3793.7261    41     3793.6017     3794.2858    26223    0.02%
     51    25     3793.6631    43     3793.6017     3794.2858    26373    0.02%
     52    26     3793.6198    46     3793.6017     3794.2858    26710    0.02%
     54    24        cutoff           3793.6017     3794.2858    26796    0.02%
     55    25     3794.2527    66     3793.6017     3794.2811    27009    0.02%
     56    26     3794.1802    59     3793.6017     3794.2811    27133    0.02%
     57    27     3794.0039    60     3793.6017     3794.2811    27442    0.02%
Elapsed time = 904.71 sec. (362540.95 ticks, tree = 15.96 MB, solutions = 3)
     58    28     3793.9209    61     3793.6017     3794.2811    27622    0.02%
     59    29     3793.8072    64     3793.6017     3794.2811    28215    0.02%
*    60+   25                         3793.7154     3794.2811             0.01%
     60    27     3793.7926    62     3793.7154     3794.2811    28262    0.01%
     61    28     3793.7171    51     3793.7154     3794.2811    28544    0.01%
     64    27     3794.2554    59     3793.7154     3794.2544    28681    0.01%
     65    28     3794.1919    60     3793.7154     3794.2544    28831    0.01%
     66    29     3794.1147    51     3793.7154     3794.2544    29101    0.01%
     67    30     3794.0130    50     3793.7154     3794.2544    29345    0.01%
     68    31     3793.8464    57     3793.7154     3794.2544    29598    0.01%
     69    32     3793.8132    53     3793.7154     3794.2544    29790    0.01%
Elapsed time = 1037.00 sec. (406035.64 ticks, tree = 13.03 MB, solutions = 4)
     70    33     3793.7754    48     3793.7154     3794.2544    29931    0.01%
     71    34     3793.7417    54     3793.7154     3794.2544    30022    0.01%
     72    35     3793.7248    55     3793.7154     3794.2544    30149    0.01%
     75    34     3793.8670    58     3793.7154     3794.2513    30631    0.01%
     76    35     3793.7987    46     3793.7154     3794.2513    30913    0.01%
     78    35        cutoff           3793.7154     3794.2513    31174    0.01%
     81    34     3793.8910    63     3793.7154     3794.2327    31761    0.01%
     82    35     3793.7645    65     3793.7154     3794.2327    32034    0.01%
     83    36     3793.7370    60     3793.7154     3794.2327    32151    0.01%
     86    35     3794.1816    61     3793.7154     3794.2058    32417    0.01%
Elapsed time = 1156.41 sec. (435937.97 ticks, tree = 13.57 MB, solutions = 4)
     87    36     3794.1135    47     3793.7154     3794.2058    32619    0.01%
     88    37     3794.0623    55     3793.7154     3794.2058    33594    0.01%
     89    38     3793.9530    36     3793.7154     3794.2058    35253    0.01%
     90    39     3793.8770    34     3793.7154     3794.2058    36180    0.01%
     91    40     3793.8392    40     3793.7154     3794.2058    36492    0.01%
     92    41     3793.7366    62     3793.7154     3794.2058    41237    0.01%
     94    39        cutoff           3793.7154     3794.2058    41358    0.01%
     95    40     3794.1790    57     3793.7154     3794.2019    41770    0.01%
     96    41     3794.0565    56     3793.7154     3794.2019    42165    0.01%
     97    42     3794.0108    54     3793.7154     3794.2019    42474    0.01%
Elapsed time = 1287.74 sec. (486326.29 ticks, tree = 14.82 MB, solutions = 4)
     98    43     3793.9723    47     3793.7154     3794.2019    42729    0.01%
     99    44     3793.8732    45     3793.7154     3794.2019    43023    0.01%
    100    45     3793.8500    48     3793.7154     3794.2019    43236    0.01%
    101    46     3793.8170    33     3793.7154     3794.2019    43530    0.01%
    102    47     3793.7720    26     3793.7154     3794.2019    43790    0.01%
    103    46        cutoff           3793.7154     3794.2019    43887    0.01%
    105    46     3793.7862    55     3793.7154     3794.1897    44443    0.01%
    106    47     3793.7470    44     3793.7154     3794.1897    44644    0.01%
    109    46     3794.1400    32     3793.7154     3794.1781    44911    0.01%
    110    47     3794.0701    35     3793.7154     3794.1781    44995    0.01%
Elapsed time = 1405.61 sec. (523098.36 ticks, tree = 15.54 MB, solutions = 4)
    111    48     3794.0903    38     3793.7154     3794.1781    45153    0.01%
    112    47        cutoff           3793.7154     3794.1781    45425    0.01%
    113    48     3794.0201    43     3793.7154     3794.1781    45823    0.01%
    114    47        cutoff           3793.7154     3794.1781    46212    0.01%
    115    48     3793.8254    30     3793.7154     3794.1781    46790    0.01%
    116    49     3793.7744    21     3793.7154     3794.1781    46910    0.01%
    117    50     3793.7369    21     3793.7154     3794.1781    47145    0.01%
    120    47        cutoff           3793.7154     3794.1781    47221    0.01%
    121    48     3793.7909    60     3793.7154     3794.1759    47794    0.01%
    123    48     3793.7195    56     3793.7154     3794.1759    48232    0.01%
Elapsed time = 1500.98 sec. (553557.75 ticks, tree = 15.90 MB, solutions = 4)
    126    47     3793.7733    57     3793.7154     3794.1672    49040    0.01%
    129    47        cutoff           3793.7154     3794.1672    49229    0.01%
    130    48     3793.9071    51     3793.7154     3794.1386    49565    0.01%
    132    50     3793.7466    39     3793.7154     3794.1386    49974    0.01%
    136    50     3793.8036    44     3793.7154     3794.1138    50488    0.01%
    138    52     3793.7420    27     3793.7154     3794.1138    50882    0.01%
    142    52     3793.9341    45     3793.7154     3794.1122    51668    0.01%
    144    54     3793.8580    56     3793.7154     3794.1122    52084    0.01%
    147    57     3793.7236    26     3793.7154     3794.1122    52811    0.01%
    150    56     3793.9965    38     3793.7154     3794.0903    53261    0.01%
Elapsed time = 1733.77 sec. (616903.69 ticks, tree = 17.33 MB, solutions = 4)
    153    59     3793.7691    42     3793.7154     3794.0903    53703    0.01%
    155    59        cutoff           3793.7154     3794.0903    53961    0.01%
    157    59     3794.0532    47     3793.7154     3794.0880    54295    0.01%
    160    62     3793.7407    22     3793.7154     3794.0880    54889    0.01%
    164    60        cutoff           3793.7154     3794.0766    55407    0.01%
    166    62     3793.9875    28     3793.7154     3794.0762    55855    0.01%
    167    63     3793.8538    33     3793.7154     3794.0762    56538    0.01%
    170    62     3793.9321    61     3793.7154     3794.0680    57380    0.01%
    172    64     3793.7810    31     3793.7154     3794.0680    58360    0.01%
    175    63     3793.9590    65     3793.7154     3794.0679    58677    0.01%
Elapsed time = 1951.07 sec. (678955.01 ticks, tree = 14.76 MB, solutions = 4)
    176    64     3793.7974    33     3793.7154     3794.0679    59000    0.01%
    177    65     3793.7555    46     3793.7154     3794.0679    59270    0.01%
    180    66     3793.7300    42     3793.7154     3794.0679    59505    0.01%
    184    66     3793.9466    10     3793.7154     3794.0622    60067    0.01%
    185    67     3793.9114    24     3793.7154     3794.0622    60557    0.01%
    189    71     3793.8834    12     3793.7154     3794.0622    61711    0.01%
*   190+   48                         3793.8127     3794.0622             0.01%
    190    50     3793.8486     4     3793.8127     3794.0622    62237    0.01%
    192    48        cutoff           3793.8127     3794.0622    63031    0.01%
    195    49        cutoff           3793.8127     3794.0531    63408    0.01%
    198    48     3793.8686    54     3793.8127     3794.0416    64429    0.01%
Elapsed time = 2163.80 sec. (751880.61 ticks, tree = 12.08 MB, solutions = 5)
    202    48     3794.0195    51     3793.8127     3794.0416    64725    0.01%
    204    50     3793.8524    33     3793.8127     3794.0416    65193    0.01%
    209    49        cutoff           3793.8127     3794.0332    65438    0.01%
    213    45        cutoff           3793.8127     3794.0076    66120    0.01%
    215    47     3793.8669    24     3793.8127     3794.0073    66964    0.01%
    218    50     3793.8325     4     3793.8127     3794.0073    67505    0.01%
    219    51     3793.8251    28     3793.8127     3794.0073    67939    0.01%
*   220+   50                         3793.8139     3794.0073             0.01%
    220    52     3793.8239     4     3793.8139     3794.0073    67979    0.01%
    225    55        cutoff           3793.8139     3794.0073    68430    0.01%
    228    54     3793.9516    49     3793.8139     3793.9973    69000    0.00%
Elapsed time = 2456.80 sec. (822227.86 ticks, tree = 24.62 MB, solutions = 6)
    230    56     3793.8741    35     3793.8139     3793.9973    69739    0.00%
    234    56     3793.8913    14     3793.8139     3793.9963    70462    0.00%
    238    56        cutoff           3793.8139     3793.9963    70758    0.00%
    240    56     3793.8921    44     3793.8139     3793.9867    71131    0.00%
    243    55     3793.9202    52     3793.8139     3793.9752    71808    0.00%
    246    54     3793.9389    40     3793.8139     3793.9722    72276    0.00%
    248    56     3793.8404    21     3793.8139     3793.9722    72647    0.00%
    252    54        cutoff           3793.8139     3793.9678    73067    0.00%
    258    50     3793.9206    47     3793.8139     3793.9465    73559    0.00%
    261    49     3793.9176    15     3793.8139     3793.9425    74036    0.00%
Elapsed time = 2643.16 sec. (880926.86 ticks, tree = 16.08 MB, solutions = 6)
    265    49     3793.8176    12     3793.8139     3793.9373    74588    0.00%
    269    49     3793.8517    29     3793.8139     3793.9330    75367    0.00%
    270    50     3793.8306    26     3793.8139     3793.9330    75662    0.00%
    271    49        cutoff           3793.8139     3793.9330    76213    0.00%
    273    49     3793.8632    17     3793.8139     3793.9319    76954    0.00%
    278    50     3793.9080    45     3793.8139     3793.9205    77399    0.00%
    280    52     3793.8155    10     3793.8139     3793.9205    77867    0.00%
    284    50        cutoff           3793.8139     3793.9146    78409    0.00%
    285    51     3793.8299    49     3793.8139     3793.9146    78878    0.00%
    289    49     3793.8407    10     3793.8139     3793.9140    79754    0.00%
Elapsed time = 2851.22 sec. (951610.58 ticks, tree = 16.08 MB, solutions = 6)
    292    48     3793.8227    37     3793.8139     3793.9096    80225    0.00%
    296    46     3793.8370    44     3793.8139     3793.9030    80828    0.00%
    301    43     3793.8870    15     3793.8139     3793.8979    81453    0.00%
    305    47     3793.8617     4     3793.8139     3793.8979    81829    0.00%
*   310+   48                         3793.8189     3793.8979             0.00%
    310    50     3793.8503     3     3793.8189     3793.8979    82384    0.00%
    312    50        cutoff           3793.8189     3793.8979    82807    0.00%
    316    48        cutoff           3793.8189     3793.8971    83256    0.00%
*   320+   26                         3793.8546     3793.8916             0.00%
    320    28     3793.8840     6     3793.8546     3793.8906    83719    0.00%
    325    23        cutoff           3793.8546     3793.8892    84178    0.00%
    330    19        cutoff           3793.8546     3793.8859    84579    0.00%
Elapsed time = 3068.77 sec. (1011174.27 ticks, tree = 3.23 MB, solutions = 8)
    339    10        cutoff           3793.8546     3793.8663    84863    0.00%

User cuts applied:  7

Root node processing (before b&c):
  Real time             =   73.89 sec. (55217.32 ticks)
Sequential b&c:
  Real time             = 3001.15 sec. (963418.14 ticks)
                          ------------
Total (root+branch&cut) = 3075.04 sec. (1018635.46 ticks)
@Parameters: 
is_S_cut                                true
is_add_all_yinF                         true
is_start_value                          true
is_usercut                              true
is_visualization                        false
uc_only_rootnode                        false

data                                    Qi
fn                                      data/Qi/instance_1000_500.csv
mode                                    ZLP
solver                                  cplex

p                                       50
r                                       5

EPS                                     1.0e-06
EPS_vio                                 1.0e-04
beta                                    0.10
gap                                     0.00
nodelimit                               Inf
timelimit                               7200.00


@PrintInfos
ItCnt: 84917
Current gap: 0.00 %
Termination Status: OPTIMAL
Primal Status: FEASIBLE_POINT
Solve Time: 3075.04 sec
Objective Value: 3793.854588
Number of Nodes:    350

CutInfo: [phase] num / time (sec) 
ZLP             [phase1]     0 / 0.00 [rLC]     3 / 14.30 [rUC]     2 / 5.54 [sLC]     0 / 23.55 [sUC]     6 / 1649.10 
OldSubmodular   [phase1]     0 / 0.00 [rLC]     0 / 0.00 [rUC]     0 / 0.00 [sLC]     0 / 0.00 [sUC]     0 / 0.00 
NewSubmodular   [phase1]     0 / 0.00 [rLC]     0 / 0.00 [rUC]     0 / 0.00 [sLC]     0 / 0.00 [sUC]     0 / 0.00 
PMP             [phase1]     0 / 0.00 [rLC]     4 / 10.62 [rUC]     2 / 3.96 [sLC]     7 / 21.20 [sUC]   414 / 1436.55 
Separation Round: [phase1] 0  [rLC] 4  [rUC] 2  [sLC] 7  [sUC] 414
Root Best Bound 3794.321457
Root Best Integer: 3790.794436
Best Bound: 3793.854588
Best Integer: 3793.854588

